h -1 2 3 0
h -3 -1 -4 0
h 5 0
h 6 -1 0
h 7 3 6 0
1 -6 0
h 8 2 0
h 3 8 0
1 -8 0
h 9 -10 0
1 -9 0
h 1 -4 -2 0
h 2 -7 0
h 4 0
h -2 -10 11 0
1 -11 0
h -2 -7 0
h 10 3 0
h 12 3 7 0
h 12 1 0
1 -12 0
h 13 4 0
h 1 14 0
1 -14 0
h 15 1 -3 0
1 -15 0
